p cnf 25 300
26 0
-26 1 0
-26 2 0
-26 3 0
-26 4 0
-26 5 0
27 28 29 30 31 32 0
-27 6 0
-27 -7 0
-27 8 0
-27 -9 0
-27 -10 0
-28 6 0
-28 -7 0
-28 -8 0
-28 9 0
-28 -10 0
-29 6 0
-29 -7 0
-29 -8 0
-29 -9 0
-29 10 0
-30 -6 0
-30 7 0
-30 -8 0
-30 9 0
-30 -10 0
-31 -6 0
-31 7 0
-31 -8 0
-31 -9 0
-31 10 0
-32 -6 0
-32 -7 0
-32 8 0
-32 -9 0
-32 10 0
-27 -28 0
-27 -29 0
-27 -30 0
-27 -31 0
-27 -32 0
-28 -29 0
-28 -30 0
-28 -31 0
-28 -32 0
-29 -30 0
-29 -31 0
-29 -32 0
-30 -31 0
-30 -32 0
-31 -32 0
33 34 35 36 37 38 0
-33 11 0
-33 -12 0
-33 13 0
-33 -14 0
-33 -15 0
-34 11 0
-34 -12 0
-34 -13 0
-34 14 0
-34 -15 0
-35 11 0
-35 -12 0
-35 -13 0
-35 -14 0
-35 15 0
-36 -11 0
-36 12 0
-36 -13 0
-36 14 0
-36 -15 0
-37 -11 0
-37 12 0
-37 -13 0
-37 -14 0
-37 15 0
-38 -11 0
-38 -12 0
-38 13 0
-38 -14 0
-38 15 0
-33 -34 0
-33 -35 0
-33 -36 0
-33 -37 0
-33 -38 0
-34 -35 0
-34 -36 0
-34 -37 0
-34 -38 0
-35 -36 0
-35 -37 0
-35 -38 0
-36 -37 0
-36 -38 0
-37 -38 0
39 40 41 42 43 44 0
-39 16 0
-39 -17 0
-39 18 0
-39 -19 0
-39 -20 0
-40 16 0
-40 -17 0
-40 -18 0
-40 19 0
-40 -20 0
-41 16 0
-41 -17 0
-41 -18 0
-41 -19 0
-41 20 0
-42 -16 0
-42 17 0
-42 -18 0
-42 19 0
-42 -20 0
-43 -16 0
-43 17 0
-43 -18 0
-43 -19 0
-43 20 0
-44 -16 0
-44 -17 0
-44 18 0
-44 -19 0
-44 20 0
-39 -40 0
-39 -41 0
-39 -42 0
-39 -43 0
-39 -44 0
-40 -41 0
-40 -42 0
-40 -43 0
-40 -44 0
-41 -42 0
-41 -43 0
-41 -44 0
-42 -43 0
-42 -44 0
-43 -44 0
45 0
-45 21 0
-45 22 0
-45 23 0
-45 24 0
-45 25 0
46 0
-46 1 0
-46 6 0
-46 11 0
-46 16 0
-46 21 0
47 48 49 50 51 52 0
-47 2 0
-47 -7 0
-47 12 0
-47 -17 0
-47 -22 0
-48 2 0
-48 -7 0
-48 -12 0
-48 17 0
-48 -22 0
-49 2 0
-49 -7 0
-49 -12 0
-49 -17 0
-49 22 0
-50 -2 0
-50 7 0
-50 -12 0
-50 17 0
-50 -22 0
-51 -2 0
-51 7 0
-51 -12 0
-51 -17 0
-51 22 0
-52 -2 0
-52 -7 0
-52 12 0
-52 -17 0
-52 22 0
-47 -48 0
-47 -49 0
-47 -50 0
-47 -51 0
-47 -52 0
-48 -49 0
-48 -50 0
-48 -51 0
-48 -52 0
-49 -50 0
-49 -51 0
-49 -52 0
-50 -51 0
-50 -52 0
-51 -52 0
53 54 55 56 57 58 0
-53 3 0
-53 -8 0
-53 13 0
-53 -18 0
-53 -23 0
-54 3 0
-54 -8 0
-54 -13 0
-54 18 0
-54 -23 0
-55 3 0
-55 -8 0
-55 -13 0
-55 -18 0
-55 23 0
-56 -3 0
-56 8 0
-56 -13 0
-56 18 0
-56 -23 0
-57 -3 0
-57 8 0
-57 -13 0
-57 -18 0
-57 23 0
-58 -3 0
-58 -8 0
-58 13 0
-58 -18 0
-58 23 0
-53 -54 0
-53 -55 0
-53 -56 0
-53 -57 0
-53 -58 0
-54 -55 0
-54 -56 0
-54 -57 0
-54 -58 0
-55 -56 0
-55 -57 0
-55 -58 0
-56 -57 0
-56 -58 0
-57 -58 0
59 60 61 62 63 64 0
-59 4 0
-59 -9 0
-59 14 0
-59 -19 0
-59 -24 0
-60 4 0
-60 -9 0
-60 -14 0
-60 19 0
-60 -24 0
-61 4 0
-61 -9 0
-61 -14 0
-61 -19 0
-61 24 0
-62 -4 0
-62 9 0
-62 -14 0
-62 19 0
-62 -24 0
-63 -4 0
-63 9 0
-63 -14 0
-63 -19 0
-63 24 0
-64 -4 0
-64 -9 0
-64 14 0
-64 -19 0
-64 24 0
-59 -60 0
-59 -61 0
-59 -62 0
-59 -63 0
-59 -64 0
-60 -61 0
-60 -62 0
-60 -63 0
-60 -64 0
-61 -62 0
-61 -63 0
-61 -64 0
-62 -63 0
-62 -64 0
-63 -64 0
65 0
-65 5 0
-65 10 0
-65 15 0
-65 20 0
-65 25 0
